\ This file has been generated by DOcplex
\ ENCODING=ISO-8859-1
\Problem name: random_problem.lp

Minimize
 obj: - 936 x0 - 468 x1 - 234 x2 - 256 x3 - 128 x4 - 64 x5 + [ 4032 x0^2
      + 4032 x0*x1 + 2016 x0*x2 + 2432 x0*x3 + 1216 x0*x4 + 608 x0*x5
      + 1008 x1^2 + 1008 x1*x2 + 1216 x1*x3 + 608 x1*x4 + 304 x1*x5 + 252 x2^2
      + 608 x2*x3 + 304 x2*x4 + 152 x2*x5 + 2944 x3^2 + 2944 x3*x4 + 1472 x3*x5
      + 736 x4^2 + 736 x4*x5 + 184 x5^2 ]/2
Subject To
 c0: 4 x0 + 2 x1 + x2 + 4 x3 + 2 x4 + x5 = 7

Bounds
 0 <= x0 <= 1
 0 <= x1 <= 1
 0 <= x2 <= 1
 0 <= x3 <= 1
 0 <= x4 <= 1
 0 <= x5 <= 1

Binaries
 x0 x1 x2 x3 x4 x5
End
